(declare-const a Real)
(declare-const b Real)
(declare-const c Real)
(assert (= (+ a b c) 3))
(assert (> a 0))
(assert (> b 0))
(assert (> c 0))
(assert (not (<= (+ (* -3 (pow (+ (* 2 (pow a 2)) (* a b) (* a c) (* -1 b c)) (/ 1 2))) (* -3 (pow (+ (* 2 (pow b 2)) (* a b) (* b c) (* -1 a c)) (/ 1 2))) (* -3 (pow (+ (* 2 (pow c 2)) (* a c) (* b c) (* -1 a b)) (/ 1 2))) (* a (pow 3 (/ 1 2))) (* b (pow 3 (/ 1 2))) (* c (pow 3 (/ 1 2)))) 0)))
(check-sat)
(get-model)
(exit)